ilp_joint_2/output/digestion_ilp.lp
Maximize
  0.0828711356294121 Z_94_1_0 + 0.0292574428660475 Z_94_1_1
   + 0.00682786637053234 Z_94_1_2 + 0.4183570150970637 Z_94_1_3
   + 9.7463953286147653e-04 Z_94_2_0 + 0.00297075332922025 Z_94_2_1
   + 0.4817165223558633 Z_94_2_2 + 0.00346821105465526 Z_94_2_3
   + 0.0828711356294121 Z_94_3_0 + 0.0292574428660475 Z_94_3_1
   + 0.00682786637053234 Z_94_3_2 + 0.4183570150970637 Z_94_3_3
   + 8.900891846066461e-04 Z_19_1_0 + 0.00417013881019312 Z_19_1_1
   + 0.4636750939523379 Z_19_1_2 + 0.00177447611799947 Z_19_1_3
   + 8.900891846066461e-04 Z_19_2_0 + 0.00417013881019312 Z_19_2_1
   + 0.4636750939523379 Z_19_2_2 + 0.00177447611799947 Z_19_2_3
   + 0.00160239487563396 Z_64_1_0 + 0.0824662824258511 Z_64_1_1
   + 0.4203392781184287 Z_64_1_2 + 0.013209443205466 Z_64_1_3 + [
   1.234204292527966 Z_94_1_0 * Z_19_2_0
   + 1.234204292527966 Z_94_1_1 * Z_19_2_1
   + 1.234204292527966 Z_94_1_2 * Z_19_2_2
   + 1.234204292527966 Z_94_1_3 * Z_19_2_3
   + 8.99564e-05 Z_94_2_0 * Z_19_2_0 + 2 Z_94_2_0 * Z_64_1_0
   + 8.99564e-05 Z_94_2_1 * Z_19_2_1 + 2 Z_94_2_1 * Z_64_1_1
   + 8.99564e-05 Z_94_2_2 * Z_19_2_2 + 2 Z_94_2_2 * Z_64_1_2
   + 8.99564e-05 Z_94_2_3 * Z_19_2_3 + 2 Z_94_2_3 * Z_64_1_3
   + 2 Z_94_3_0 * Z_19_2_0 + 2 Z_94_3_1 * Z_19_2_1 + 2 Z_94_3_2 * Z_19_2_2
   + 2 Z_94_3_3 * Z_19_2_3 + 8.99564e-05 Z_19_2_0 * Z_64_1_0
   + 8.99564e-05 Z_19_2_1 * Z_64_1_1 + 8.99564e-05 Z_19_2_2 * Z_64_1_2
   + 8.99564e-05 Z_19_2_3 * Z_64_1_3 ] / 2 
Subject To
 constraint1_941: Z_94_1_0 + Z_94_1_1 + Z_94_1_2 + Z_94_1_3 <= 1
 constraint1_942: Z_94_2_0 + Z_94_2_1 + Z_94_2_2 + Z_94_2_3 <= 1
 constraint1_943: Z_94_3_0 + Z_94_3_1 + Z_94_3_2 + Z_94_3_3 <= 1
 constraint1_191: Z_19_1_0 + Z_19_1_1 + Z_19_1_2 + Z_19_1_3 <= 1
 constraint1_192: Z_19_2_0 + Z_19_2_1 + Z_19_2_2 + Z_19_2_3 <= 1
 constraint1_641: Z_64_1_0 + Z_64_1_1 + Z_64_1_2 + Z_64_1_3 <= 1
 constraint2_940: Z_94_1_0 + Z_94_2_0 + Z_94_3_0 <= 1
 constraint2_941: Z_94_1_1 + Z_94_2_1 + Z_94_3_1 <= 1
 constraint2_942: Z_94_1_2 + Z_94_2_2 + Z_94_3_2 <= 1
 constraint2_943: Z_94_1_3 + Z_94_2_3 + Z_94_3_3 <= 1
 constraint2_190: Z_19_1_0 + Z_19_2_0 <= 1
 constraint2_191: Z_19_1_1 + Z_19_2_1 <= 1
 constraint2_192: Z_19_1_2 + Z_19_2_2 <= 1
 constraint2_193: Z_19_1_3 + Z_19_2_3 <= 1
 constraint2_640: Z_64_1_0 <= 1
 constraint2_641: Z_64_1_1 <= 1
 constraint2_642: Z_64_1_2 <= 1
 constraint2_643: Z_64_1_3 <= 1
Bounds
Binaries
 Z_94_1_0 Z_94_1_1 Z_94_1_2 Z_94_1_3 Z_94_2_0 Z_94_2_1 Z_94_2_2 Z_94_2_3
 Z_94_3_0 Z_94_3_1 Z_94_3_2 Z_94_3_3 Z_19_1_0 Z_19_1_1 Z_19_1_2 Z_19_1_3
 Z_19_2_0 Z_19_2_1 Z_19_2_2 Z_19_2_3 Z_64_1_0 Z_64_1_1 Z_64_1_2 Z_64_1_3
End
