ilp_joint_2/output/digestion_ilp.mps
NAME digestion_srl_ilp
* Max problem is converted into Min one
ROWS
 N  OBJ
 L  constraint1_941
 L  constraint1_942
 L  constraint1_943
 L  constraint1_191
 L  constraint1_192
 L  constraint1_641
 L  constraint2_940
 L  constraint2_941
 L  constraint2_942
 L  constraint2_943
 L  constraint2_190
 L  constraint2_191
 L  constraint2_192
 L  constraint2_193
 L  constraint2_640
 L  constraint2_641
 L  constraint2_642
 L  constraint2_643
COLUMNS
    MARKER    'MARKER'                 'INTORG'
    Z_94_1_0  OBJ       -8.2871135629412063e-02
    Z_94_1_0  constraint1_941  1
    Z_94_1_0  constraint2_940  1
    Z_94_1_1  OBJ       -2.9257442866047534e-02
    Z_94_1_1  constraint1_941  1
    Z_94_1_1  constraint2_941  1
    Z_94_1_2  OBJ       -6.8278663705323428e-03
    Z_94_1_2  constraint1_941  1
    Z_94_1_2  constraint2_942  1
    Z_94_1_3  OBJ       -4.1835701509706374e-01
    Z_94_1_3  constraint1_941  1
    Z_94_1_3  constraint2_943  1
    Z_94_2_0  OBJ       -9.7463953286147653e-04
    Z_94_2_0  constraint1_942  1
    Z_94_2_0  constraint2_940  1
    Z_94_2_1  OBJ       -2.9707533292202548e-03
    Z_94_2_1  constraint1_942  1
    Z_94_2_1  constraint2_941  1
    Z_94_2_2  OBJ       -4.8171652235586332e-01
    Z_94_2_2  constraint1_942  1
    Z_94_2_2  constraint2_942  1
    Z_94_2_3  OBJ       -3.4682110546552553e-03
    Z_94_2_3  constraint1_942  1
    Z_94_2_3  constraint2_943  1
    Z_94_3_0  OBJ       -8.2871135629412063e-02
    Z_94_3_0  constraint1_943  1
    Z_94_3_0  constraint2_940  1
    Z_94_3_1  OBJ       -2.9257442866047534e-02
    Z_94_3_1  constraint1_943  1
    Z_94_3_1  constraint2_941  1
    Z_94_3_2  OBJ       -6.8278663705323428e-03
    Z_94_3_2  constraint1_943  1
    Z_94_3_2  constraint2_942  1
    Z_94_3_3  OBJ       -4.1835701509706374e-01
    Z_94_3_3  constraint1_943  1
    Z_94_3_3  constraint2_943  1
    Z_19_1_0  OBJ       -8.9008918460664610e-04
    Z_19_1_0  constraint1_191  1
    Z_19_1_0  constraint2_190  1
    Z_19_1_1  OBJ       -4.1701388101931247e-03
    Z_19_1_1  constraint1_191  1
    Z_19_1_1  constraint2_191  1
    Z_19_1_2  OBJ       -4.6367509395233786e-01
    Z_19_1_2  constraint1_191  1
    Z_19_1_2  constraint2_192  1
    Z_19_1_3  OBJ       -1.7744761179994725e-03
    Z_19_1_3  constraint1_191  1
    Z_19_1_3  constraint2_193  1
    Z_19_2_0  OBJ       -8.9008918460664610e-04
    Z_19_2_0  constraint1_192  1
    Z_19_2_0  constraint2_190  1
    Z_19_2_1  OBJ       -4.1701388101931247e-03
    Z_19_2_1  constraint1_192  1
    Z_19_2_1  constraint2_191  1
    Z_19_2_2  OBJ       -4.6367509395233786e-01
    Z_19_2_2  constraint1_192  1
    Z_19_2_2  constraint2_192  1
    Z_19_2_3  OBJ       -1.7744761179994725e-03
    Z_19_2_3  constraint1_192  1
    Z_19_2_3  constraint2_193  1
    Z_64_1_0  OBJ       -1.6023948756339612e-03
    Z_64_1_0  constraint1_641  1
    Z_64_1_0  constraint2_640  1
    Z_64_1_1  OBJ       -8.2466282425851078e-02
    Z_64_1_1  constraint1_641  1
    Z_64_1_1  constraint2_641  1
    Z_64_1_2  OBJ       -4.2033927811842875e-01
    Z_64_1_2  constraint1_641  1
    Z_64_1_2  constraint2_642  1
    Z_64_1_3  OBJ       -1.3209443205465967e-02
    Z_64_1_3  constraint1_641  1
    Z_64_1_3  constraint2_643  1
    MARKER    'MARKER'                 'INTEND'
RHS
    RHS1      constraint1_941  1
    RHS1      constraint1_942  1
    RHS1      constraint1_943  1
    RHS1      constraint1_191  1
    RHS1      constraint1_192  1
    RHS1      constraint1_641  1
    RHS1      constraint2_940  1
    RHS1      constraint2_941  1
    RHS1      constraint2_942  1
    RHS1      constraint2_943  1
    RHS1      constraint2_190  1
    RHS1      constraint2_191  1
    RHS1      constraint2_192  1
    RHS1      constraint2_193  1
    RHS1      constraint2_640  1
    RHS1      constraint2_641  1
    RHS1      constraint2_642  1
    RHS1      constraint2_643  1
BOUNDS
 UP BND1      Z_94_1_0  1
 UP BND1      Z_94_1_1  1
 UP BND1      Z_94_1_2  1
 UP BND1      Z_94_1_3  1
 UP BND1      Z_94_2_0  1
 UP BND1      Z_94_2_1  1
 UP BND1      Z_94_2_2  1
 UP BND1      Z_94_2_3  1
 UP BND1      Z_94_3_0  1
 UP BND1      Z_94_3_1  1
 UP BND1      Z_94_3_2  1
 UP BND1      Z_94_3_3  1
 UP BND1      Z_19_1_0  1
 UP BND1      Z_19_1_1  1
 UP BND1      Z_19_1_2  1
 UP BND1      Z_19_1_3  1
 UP BND1      Z_19_2_0  1
 UP BND1      Z_19_2_1  1
 UP BND1      Z_19_2_2  1
 UP BND1      Z_19_2_3  1
 UP BND1      Z_64_1_0  1
 UP BND1      Z_64_1_1  1
 UP BND1      Z_64_1_2  1
 UP BND1      Z_64_1_3  1
QUADOBJ
    Z_94_1_0  Z_19_2_0  -6.1710214626398296e-01
    Z_94_1_1  Z_19_2_1  -6.1710214626398296e-01
    Z_94_1_2  Z_19_2_2  -6.1710214626398296e-01
    Z_94_1_3  Z_19_2_3  -6.1710214626398296e-01
    Z_94_2_0  Z_19_2_0  -4.4978185968852766e-05
    Z_94_2_0  Z_64_1_0  -1
    Z_94_2_1  Z_19_2_1  -4.4978185968852766e-05
    Z_94_2_1  Z_64_1_1  -1
    Z_94_2_2  Z_19_2_2  -4.4978185968852766e-05
    Z_94_2_2  Z_64_1_2  -1
    Z_94_2_3  Z_19_2_3  -4.4978185968852766e-05
    Z_94_2_3  Z_64_1_3  -1
    Z_94_3_0  Z_19_2_0  -1
    Z_94_3_1  Z_19_2_1  -1
    Z_94_3_2  Z_19_2_2  -1
    Z_94_3_3  Z_19_2_3  -1
    Z_19_2_0  Z_64_1_0  -4.4978185968852766e-05
    Z_19_2_1  Z_64_1_1  -4.4978185968852766e-05
    Z_19_2_2  Z_64_1_2  -4.4978185968852766e-05
    Z_19_2_3  Z_64_1_3  -4.4978185968852766e-05
ENDATA
