ilp_joint_2/output/digestion_ilp.sol
# Solution for model digestion_srl_ilp
# Objective value = 3.8687335212711051e+00
Z_94_1_0 1
Z_94_1_1 0
Z_94_1_2 0
Z_94_1_3 0
Z_94_2_0 0
Z_94_2_1 0
Z_94_2_2 1
Z_94_2_3 0
Z_94_3_0 0
Z_94_3_1 0
Z_94_3_2 0
Z_94_3_3 1
Z_19_1_0 0
Z_19_1_1 0
Z_19_1_2 1
Z_19_1_3 0
Z_19_2_0 0
Z_19_2_1 0
Z_19_2_2 0
Z_19_2_3 1
Z_64_1_0 0
Z_64_1_1 0
Z_64_1_2 1
Z_64_1_3 0
